104	329
104.1	329
104.2	329
104.3	329
104.4	329
104.5	328.99
104.6	328.99
104.7	328.98
104.8	328.97
104.9	328.96
105	328.94
105.1	328.93
105.2	328.91
105.3	328.89
105.4	328.86
105.5	328.83
105.6	328.8
105.7	328.77
105.8	328.74
105.9	328.7
106	328.66
106.1	328.62
106.2	328.57
106.3	328.52
106.4	328.48
106.5	328.42
106.6	328.37
106.7	328.32
106.8	328.26
106.9	328.2
107	328.14
107.1	328.08
107.2	328.02
107.3	327.95
107.4	327.89
107.5	327.82
107.6	327.76
107.7	327.69
107.8	327.63
107.9	327.56
108	327.49
108.1	327.42
108.2	327.35
108.3	327.29
108.4	327.22
108.5	327.15
108.6	327.08
108.7	327.01
108.8	326.95
108.9	326.88
109	326.81
109.1	326.75
109.2	326.68
109.3	326.62
109.4	326.55
109.5	326.49
109.6	326.43
109.7	326.37
109.8	326.31
109.9	326.24
110	326.18
110.1	326.13
110.2	326.07
110.3	326.01
110.4	325.95
110.5	325.9
110.6	325.84
110.7	325.78
110.8	325.73
110.9	325.68
111	325.62
111.1	325.57
111.2	325.52
111.3	325.47
111.4	325.42
111.5	325.37
111.6	325.32
111.7	325.27
111.8	325.22
111.9	325.17
112	325.12
112.1	325.08
112.2	325.03
112.3	324.98
112.4	324.94
112.5	324.89
112.6	324.84
112.7	324.8
112.8	324.75
112.9	324.71
113	324.66
113.1	324.62
113.2	324.57
113.3	324.53
113.4	324.48
113.5	324.44
113.6	324.39
113.7	324.35
113.8	324.3
113.9	324.26
114	324.21
114.1	324.17
114.2	324.12
114.3	324.08
114.4	324.04
114.5	323.99
114.6	323.95
114.7	323.9
114.8	323.86
114.9	323.81
115	323.77
115.1	323.72
115.2	323.67
115.3	323.63
115.4	323.58
115.5	323.54
115.6	323.49
115.7	323.45
115.8	323.4
115.9	323.35
116	323.31
116.1	323.26
116.2	323.21
116.3	323.17
116.4	323.12
116.5	323.07
116.6	323.03
116.7	322.98
116.8	322.93
116.9	322.88
117	322.84
117.1	322.79
117.2	322.74
117.3	322.7
117.4	322.65
117.5	322.6
117.6	322.55
117.7	322.51
117.8	322.46
117.9	322.41
118	322.36
118.1	322.31
118.2	322.27
118.3	322.22
118.4	322.17
118.5	322.12
118.6	322.07
118.7	322.03
118.8	321.98
118.9	321.93
119	321.88
119.1	321.83
119.2	321.79
119.3	321.74
119.4	321.69
119.5	321.64
119.6	321.59
119.7	321.55
119.8	321.5
119.9	321.45
120	321.4
120.1	321.36
120.2	321.31
120.3	321.26
120.4	321.21
120.5	321.16
120.6	321.12
120.7	321.07
120.8	321.02
120.9	320.97
121	320.92
121.1	320.88
121.2	320.83
121.3	320.78
121.4	320.73
121.5	320.69
121.6	320.64
121.7	320.59
121.8	320.54
121.9	320.5
122	320.45
122.1	320.4
122.2	320.35
122.3	320.31
122.4	320.26
122.5	320.21
122.6	320.16
122.7	320.12
122.8	320.07
122.9	320.02
123	319.97
123.1	319.93
123.2	319.88
123.3	319.83
123.4	319.78
123.5	319.74
123.6	319.69
123.7	319.64
123.8	319.59
123.9	319.55
124	319.5
124.1	319.45
124.2	319.4
124.3	319.36
124.4	319.31
124.5	319.26
124.6	319.21
124.7	319.17
124.8	319.12
124.9	319.07
125	319.02
125.1	318.98
125.2	318.93
125.3	318.88
125.4	318.83
125.5	318.79
125.6	318.74
125.7	318.69
125.8	318.64
125.9	318.6
126	318.55
126.1	318.5
126.2	318.46
126.3	318.41
126.4	318.36
126.5	318.31
126.6	318.27
126.7	318.22
126.8	318.17
126.9	318.12
127	318.08
127.1	318.03
127.2	317.98
127.3	317.93
127.4	317.89
127.5	317.84
127.6	317.79
127.7	317.74
127.8	317.7
127.9	317.65
128	317.6
128.1	317.55
128.2	317.51
128.3	317.46
128.4	317.41
128.5	317.36
128.6	317.32
128.7	317.27
128.8	317.22
128.9	317.17
129	317.13
129.1	317.08
129.2	317.03
129.3	316.98
129.4	316.94
129.5	316.89
129.6	316.84
129.7	316.79
129.8	316.75
129.9	316.7
130	316.65
130.1	316.6
130.2	316.56
130.3	316.51
130.4	316.46
130.5	316.41
130.6	316.37
130.7	316.32
130.8	316.27
130.9	316.22
131	316.18
131.1	316.13
131.2	316.08
131.3	316.03
131.4	315.99
131.5	315.94
131.6	315.89
131.7	315.84
131.8	315.79
131.9	315.75
132	315.7
132.1	315.65
132.2	315.6
132.3	315.56
132.4	315.51
132.5	315.46
132.6	315.41
132.7	315.37
132.8	315.32
132.9	315.27
133	315.22
133.1	315.18
133.2	315.13
133.3	315.08
133.4	315.03
133.5	314.99
133.6	314.94
133.7	314.89
133.8	314.84
133.9	314.8
134	314.75
134.1	314.7
134.2	314.65
134.3	314.61
134.4	314.56
134.5	314.51
134.6	314.46
134.7	314.42
134.8	314.37
134.9	314.32
135	314.27
135.1	314.23
135.2	314.18
135.3	314.13
135.4	314.08
135.5	314.04
135.6	313.99
135.7	313.94
135.8	313.89
135.9	313.85
136	313.8
136.1	313.75
136.2	313.7
136.3	313.66
136.4	313.61
136.5	313.56
136.6	313.51
136.7	313.47
136.8	313.42
136.9	313.37
137	313.33
137.1	313.28
137.2	313.23
137.3	313.18
137.4	313.14
137.5	313.09
137.6	313.04
137.7	312.99
137.8	312.95
137.9	312.9
138	312.85
138.1	312.8
138.2	312.76
138.3	312.71
138.4	312.66
138.5	312.61
138.6	312.57
138.7	312.52
138.8	312.47
138.9	312.42
139	312.38
139.1	312.33
139.2	312.28
139.3	312.23
139.4	312.19
139.5	312.14
139.6	312.09
139.7	312.04
139.8	312
139.9	311.95
140	311.9
140.1	311.85
140.2	311.81
140.3	311.76
140.4	311.71
140.5	311.66
140.6	311.62
140.7	311.57
140.8	311.52
140.9	311.47
141	311.43
141.1	311.38
141.2	311.33
141.3	311.28
141.4	311.24
141.5	311.19
141.6	311.14
141.7	311.09
141.8	311.05
141.9	311
142	310.95
142.1	310.9
142.2	310.85
142.3	310.81
142.4	310.76
142.5	310.71
142.6	310.66
142.7	310.62
142.8	310.57
142.9	310.52
143	310.47
143.1	310.43
143.2	310.38
143.3	310.33
143.4	310.28
143.5	310.24
143.6	310.19
143.7	310.14
143.8	310.09
143.9	310.05
144	310
144.1	309.95
144.2	309.9
144.3	309.86
144.4	309.81
144.5	309.76
144.6	309.71
144.7	309.67
144.8	309.62
144.9	309.57
145	309.52
145.1	309.48
145.2	309.43
145.3	309.38
145.4	309.33
145.5	309.29
145.6	309.24
145.7	309.19
145.8	309.14
145.9	309.1
146	309.05
146.1	309
146.2	308.95
146.3	308.91
146.4	308.86
146.5	308.81
146.6	308.76
146.7	308.72
146.8	308.67
146.9	308.62
147	308.57
147.1	308.53
147.2	308.48
147.3	308.43
147.4	308.38
147.5	308.34
147.6	308.29
147.7	308.24
147.8	308.2
147.9	308.15
148	308.1
148.1	308.05
148.2	308.01
148.3	307.96
148.4	307.91
148.5	307.86
148.6	307.82
148.7	307.77
148.8	307.72
148.9	307.67
149	307.63
149.1	307.58
149.2	307.53
149.3	307.48
149.4	307.44
149.5	307.39
149.6	307.34
149.7	307.29
149.8	307.25
149.9	307.2
150	307.15
150.1	307.1
150.2	307.06
150.3	307.01
150.4	306.96
150.5	306.91
150.6	306.87
150.7	306.82
150.8	306.77
150.9	306.72
151	306.68
151.1	306.63
151.2	306.58
151.3	306.53
151.4	306.49
151.5	306.44
151.6	306.39
151.7	306.34
151.8	306.3
151.9	306.25
152	306.2
152.1	306.15
152.2	306.11
152.3	306.06
152.4	306.01
152.5	305.96
152.6	305.92
152.7	305.87
152.8	305.82
152.9	305.77
153	305.72
153.1	305.68
153.2	305.63
153.3	305.58
153.4	305.53
153.5	305.49
153.6	305.44
153.7	305.39
153.8	305.34
153.9	305.3
154	305.25
154.1	305.2
154.2	305.15
154.3	305.11
154.4	305.06
154.5	305.01
154.6	304.96
154.7	304.92
154.8	304.87
154.9	304.82
155	304.77
155.1	304.73
155.2	304.68
155.3	304.63
155.4	304.58
155.5	304.54
155.6	304.49
155.7	304.44
155.8	304.39
155.9	304.35
156	304.3
156.1	304.25
156.2	304.2
156.3	304.16
156.4	304.11
156.5	304.06
156.6	304.01
156.7	303.97
156.8	303.92
156.9	303.87
157	303.82
157.1	303.78
157.2	303.73
157.3	303.68
157.4	303.63
157.5	303.59
157.6	303.54
157.7	303.49
157.8	303.44
157.9	303.4
158	303.35
158.1	303.3
158.2	303.26
158.3	303.21
158.4	303.16
158.5	303.11
158.6	303.07
158.7	303.02
158.8	302.97
158.9	302.92
159	302.88
159.1	302.83
159.2	302.78
159.3	302.73
159.4	302.69
159.5	302.64
159.6	302.59
159.7	302.54
159.8	302.5
159.9	302.45
160	302.4
160.1	302.35
160.2	302.31
160.3	302.26
160.4	302.21
160.5	302.16
160.6	302.12
160.7	302.07
160.8	302.02
160.9	301.97
161	301.93
161.1	301.88
161.2	301.83
161.3	301.78
161.4	301.74
161.5	301.69
161.6	301.64
161.7	301.59
161.8	301.55
161.9	301.5
162	301.45
162.1	301.4
162.2	301.36
162.3	301.31
162.4	301.26
162.5	301.21
162.6	301.17
162.7	301.12
162.8	301.07
162.9	301.02
163	300.98
163.1	300.93
163.2	300.88
163.3	300.83
163.4	300.79
163.5	300.74
163.6	300.69
163.7	300.64
163.8	300.59
163.9	300.55
164	300.5
164.1	300.45
164.2	300.4
164.3	300.36
164.4	300.31
164.5	300.26
164.6	300.21
164.7	300.17
164.8	300.12
164.9	300.07
165	300.02
165.1	299.98
165.2	299.93
165.3	299.88
165.4	299.83
165.5	299.79
165.6	299.74
165.7	299.69
165.8	299.64
165.9	299.6
166	299.55
166.1	299.5
166.2	299.45
166.3	299.41
166.4	299.36
166.5	299.31
166.6	299.26
166.7	299.22
166.8	299.17
166.9	299.12
167	299.07
167.1	299.03
167.2	298.98
167.3	298.93
167.4	298.88
167.5	298.84
167.6	298.79
167.7	298.74
167.8	298.69
167.9	298.65
168	298.6
168.1	298.55
168.2	298.5
168.3	298.46
168.4	298.41
168.5	298.36
168.6	298.31
168.7	298.27
168.8	298.22
168.9	298.17
169	298.13
169.1	298.08
169.2	298.03
169.3	297.98
169.4	297.94
169.5	297.89
169.6	297.84
169.7	297.79
169.8	297.75
169.9	297.7
170	297.65
170.1	297.6
170.2	297.56
170.3	297.51
170.4	297.46
170.5	297.41
170.6	297.37
170.7	297.32
170.8	297.27
170.9	297.22
171	297.18
171.1	297.13
171.2	297.08
171.3	297.03
171.4	296.99
171.5	296.94
171.6	296.89
171.7	296.84
171.8	296.8
171.9	296.75
172	296.7
172.1	296.65
172.2	296.61
172.3	296.56
172.4	296.51
172.5	296.46
172.6	296.42
172.7	296.37
172.8	296.32
172.9	296.27
173	296.23
173.1	296.18
173.2	296.13
173.3	296.08
173.4	296.04
173.5	295.99
173.6	295.94
173.7	295.89
173.8	295.85
173.9	295.8
174	295.75
174.1	295.7
174.2	295.65
174.3	295.61
174.4	295.56
174.5	295.51
174.6	295.46
174.7	295.42
174.8	295.37
174.9	295.32
175	295.27
175.1	295.23
175.2	295.18
175.3	295.13
175.4	295.08
175.5	295.04
175.6	294.99
175.7	294.94
175.8	294.89
175.9	294.85
176	294.8
176.1	294.75
176.2	294.7
176.3	294.66
176.4	294.61
176.5	294.56
176.6	294.51
176.7	294.47
176.8	294.42
176.9	294.37
177	294.32
177.1	294.28
177.2	294.23
177.3	294.18
177.4	294.13
177.5	294.09
177.6	294.04
177.7	293.99
177.8	293.94
177.9	293.9
178	293.85
178.1	293.8
178.2	293.75
178.3	293.71
178.4	293.66
178.5	293.61
178.6	293.56
178.7	293.52
178.8	293.47
178.9	293.42
179	293.37
179.1	293.33
179.2	293.28
179.3	293.23
179.4	293.19
179.5	293.14
179.6	293.09
179.7	293.04
179.8	293
179.9	292.95
180	292.9
180.1	292.85
180.2	292.81
180.3	292.76
180.4	292.71
180.5	292.66
180.6	292.62
180.7	292.57
180.8	292.52
180.9	292.47
181	292.43
181.1	292.38
181.2	292.33
181.3	292.28
181.4	292.24
181.5	292.19
181.6	292.14
181.7	292.09
181.8	292.05
181.9	292
182	291.95
182.1	291.9
182.2	291.86
182.3	291.81
182.4	291.76
182.5	291.71
182.6	291.67
182.7	291.62
182.8	291.57
182.9	291.52
183	291.48
183.1	291.43
183.2	291.38
183.3	291.33
183.4	291.29
183.5	291.24
183.6	291.19
183.7	291.14
183.8	291.09
183.9	291.05
184	291
